p tw 2328 3608
1 2
1 129
1 130
3 4
3 130
3 131
5 6
5 177
7 8
7 178
9 10
9 132
9 133
11 12
11 133
11 134
13 14
13 179
15 16
15 180
17 18
17 181
19 20
19 182
21 22
21 135
21 136
23 24
23 136
23 137
25 26
25 183
27 28
27 184
29 30
29 138
29 139
31 32
31 139
31 140
33 34
33 141
33 142
35 36
35 142
35 143
37 38
37 185
39 40
39 186
41 42
41 144
41 145
43 44
43 145
43 146
45 46
45 187
47 48
47 188
49 50
49 189
51 52
51 190
53 54
53 147
53 148
55 56
55 148
55 149
57 58
57 191
59 60
59 192
61 62
61 150
61 151
63 64
63 151
63 152
65 66
65 153
65 154
67 68
67 154
67 155
69 70
69 193
71 72
71 194
73 74
73 156
73 157
75 76
75 157
75 158
77 78
77 195
79 80
79 196
81 82
81 197
83 84
83 198
85 86
85 159
85 160
87 88
87 160
87 161
89 90
89 199
91 92
91 200
93 94
93 162
93 163
95 96
95 163
95 164
97 98
97 165
97 166
99 100
99 166
99 167
101 102
101 201
103 104
103 202
105 106
105 168
105 169
107 108
107 169
107 170
109 110
109 203
111 112
111 204
113 114
113 205
115 116
115 206
117 118
117 171
117 172
119 120
119 172
119 173
121 122
121 207
123 124
123 208
125 126
125 174
125 175
127 128
127 175
127 176
129 130
129 245
130 131
131 246
132 133
132 247
133 134
134 248
135 136
135 218
135 219
136 137
137 249
138 139
138 236
138 237
139 140
140 250
141 142
141 210
141 211
142 143
143 251
144 145
144 228
144 229
145 146
146 252
147 148
147 253
148 149
149 224
149 225
150 151
150 254
151 152
152 242
152 243
153 154
153 255
154 155
155 216
155 217
156 157
156 256
157 158
158 234
158 235
159 160
159 221
159 222
160 161
161 257
162 163
162 239
162 240
163 164
164 258
165 166
165 213
165 214
166 167
167 259
168 169
168 231
168 232
169 170
170 260
171 172
171 261
172 173
173 262
174 175
174 263
175 176
176 264
177 266
177 267
178 394
178 395
179 269
179 270
180 397
180 398
181 209
181 210
182 400
182 401
183 227
183 228
184 403
184 404
185 219
185 220
186 345
186 346
187 237
187 238
188 369
188 370
189 411
189 412
190 215
190 216
191 281
191 282
192 233
192 234
193 284
193 285
194 225
194 226
195 287
195 288
196 243
196 244
197 212
197 213
198 424
198 425
199 230
199 231
200 427
200 428
201 222
201 223
202 348
202 349
203 240
203 241
204 372
204 373
205 435
205 436
206 337
206 338
207 299
207 300
208 361
208 362
209 210
209 303
210 211
211 307
212 213
212 318
213 214
214 322
215 216
215 309
216 217
217 283
217 284
218 219
218 304
219 220
220 275
220 276
221 222
221 319
222 223
223 293
223 294
224 225
224 280
224 281
225 226
226 315
227 228
227 272
227 273
228 229
229 308
230 231
230 290
230 291
231 232
232 323
233 234
233 311
234 235
235 286
235 287
236 237
236 305
237 238
238 278
238 279
239 240
239 320
240 241
241 296
241 297
242 243
242 313
243 244
244 317
245 301
246 265
246 266
247 302
248 268
248 269
249 271
249 272
250 306
251 274
251 275
252 277
252 278
253 310
254 312
255 314
256 316
257 289
257 290
258 321
259 292
259 293
260 295
260 296
261 324
262 298
262 299
263 325
264 326
265 266
265 375
266 267
267 339
267 340
268 269
268 376
269 270
270 363
270 364
271 272
271 377
272 273
273 352
273 353
274 275
274 333
274 334
275 276
276 379
277 278
277 357
277 358
278 279
279 381
280 281
280 346
280 347
281 282
282 382
283 284
283 383
284 285
285 342
285 343
286 287
286 385
287 288
288 366
288 367
289 290
289 387
290 291
291 355
291 356
292 293
292 336
292 337
293 294
294 389
295 296
295 360
295 361
296 297
297 391
298 299
298 349
298 350
299 300
300 392
301 327
301 328
302 351
302 352
303 328
303 329
304 340
304 341
305 364
305 365
306 493
306 494
307 378
308 380
309 334
309 335
310 472
310 473
311 358
311 359
312 490
312 491
313 370
313 371
314 330
314 331
315 384
316 354
316 355
317 386
318 331
318 332
319 343
319 344
320 367
320 368
321 496
321 497
322 388
323 390
324 560
324 561
325 563
325 564
326 373
326 374
327 328
327 441
328 329
329 399
329 400
330 331
330 452
331 332
332 423
332 424
333 334
333 448
334 335
335 412
335 413
336 337
336 459
337 338
338 436
338 437
339 340
339 393
339 394
340 341
341 445
342 343
342 417
342 418
343 344
344 456
345 346
345 406
345 407
346 347
347 450
348 349
348 430
348 431
349 350
350 461
351 352
351 443
352 353
353 402
353 403
354 355
354 454
355 356
356 426
356 427
357 358
357 449
358 359
359 415
359 416
360 361
360 460
361 362
362 439
362 440
363 364
363 396
363 397
364 365
365 447
366 367
366 420
366 421
367 368
368 458
369 370
369 409
369 410
370 371
371 451
372 373
372 433
372 434
373 374
374 462
375 442
376 444
377 446
378 594
378 595
379 405
379 406
380 539
380 540
381 408
381 409
382 414
382 415
383 453
384 418
384 419
385 455
386 421
386 422
387 457
388 597
388 598
389 429
389 430
390 557
390 558
391 432
391 433
392 438
392 439
393 394
393 500
394 395
395 501
396 397
396 503
397 398
398 504
399 400
399 505
400 401
401 466
401 467
402 403
402 507
403 404
404 484
404 485
405 406
405 509
406 407
407 476
407 477
408 409
408 510
409 410
410 494
410 495
411 412
411 463
411 464
412 413
413 511
414 415
414 481
414 482
415 416
416 513
417 418
417 473
417 474
418 419
419 515
420 421
420 491
420 492
421 422
422 516
423 424
423 517
424 425
425 469
425 470
426 427
426 519
427 428
428 487
428 488
429 430
429 521
430 431
431 479
431 480
432 433
432 522
433 434
434 497
434 498
435 436
435 523
436 437
437 524
438 439
438 526
439 440
440 527
441 499
442 600
442 601
443 502
444 624
444 625
445 506
446 475
446 476
447 508
448 467
448 468
449 485
449 486
450 512
451 514
452 464
452 465
453 603
453 604
454 482
454 483
455 627
455 628
456 518
457 478
457 479
458 520
459 470
459 471
460 488
460 489
461 525
462 528
463 464
463 577
464 465
465 579
466 467
466 532
466 533
467 468
468 572
469 470
469 550
469 551
470 471
471 587
472 473
472 542
472 543
473 474
474 580
475 476
475 569
476 477
477 538
477 539
478 479
478 584
479 480
480 556
480 557
481 482
481 578
482 483
483 548
483 549
484 485
484 535
484 536
485 486
486 574
487 488
487 553
487 554
488 489
489 589
490 491
490 545
490 546
491 492
492 581
493 494
493 571
494 495
495 576
496 497
496 586
497 498
498 591
499 663
499 664
500 565
501 529
501 530
502 530
502 531
503 566
504 567
505 568
506 533
506 534
507 570
508 536
508 537
509 573
510 575
511 541
511 542
512 682
512 683
513 544
513 545
514 685
514 686
515 547
515 548
516 582
517 583
518 551
518 552
519 585
520 554
520 555
521 588
522 590
523 592
524 559
524 560
525 706
525 707
526 593
527 562
527 563
528 709
528 710
529 530
529 612
529 613
530 531
531 642
532 533
532 601
532 602
533 534
534 643
535 536
535 625
535 626
536 537
537 644
538 539
538 646
539 540
540 618
540 619
541 542
541 649
542 543
543 607
543 608
544 545
544 650
545 546
546 631
546 632
547 548
547 615
547 616
548 549
549 653
550 551
550 604
550 605
551 552
552 655
553 554
553 628
553 629
554 555
555 656
556 557
556 658
557 558
558 621
558 622
559 560
559 661
560 561
561 610
561 611
562 563
562 662
563 564
564 634
564 635
565 800
565 801
566 803
566 804
567 636
567 637
568 733
568 734
569 613
569 614
570 751
570 752
571 637
571 638
572 645
573 606
573 607
574 647
575 630
575 631
576 648
577 595
577 596
578 619
578 620
579 651
580 652
581 654
582 639
582 640
583 736
583 737
584 616
584 617
585 754
585 755
586 640
586 641
587 657
588 609
588 610
589 659
590 633
590 634
591 660
592 598
592 599
593 622
593 623
594 595
594 675
594 676
595 596
596 718
597 598
597 699
597 700
598 599
599 729
600 601
600 664
600 665
601 602
602 713
603 604
603 688
603 689
604 605
605 724
606 607
606 715
607 608
608 681
608 682
609 610
609 726
610 611
611 705
611 706
612 613
612 711
613 614
614 670
614 671
615 616
615 722
616 617
617 694
617 695
618 619
618 678
618 679
619 620
620 720
621 622
621 702
621 703
622 623
623 731
624 625
624 667
624 668
625 626
626 714
627 628
627 691
627 692
628 629
629 725
630 631
630 717
631 632
632 684
632 685
633 634
633 728
634 635
635 708
635 709
636 637
636 712
637 638
638 673
638 674
639 640
639 723
640 641
641 697
641 698
642 666
642 667
643 669
643 670
644 672
644 673
645 676
645 677
646 716
647 679
647 680
648 903
648 904
649 719
650 721
651 687
651 688
652 818
652 819
653 690
653 691
654 821
654 822
655 693
655 694
656 696
656 697
657 700
657 701
658 727
659 703
659 704
660 906
660 907
661 730
662 732
663 664
663 769
664 665
665 770
666 667
666 772
667 668
668 773
669 670
669 742
669 743
670 671
671 776
672 673
672 760
672 761
673 674
674 778
675 676
675 734
675 735
676 677
677 779
678 679
678 752
678 753
679 680
680 780
681 682
681 782
682 683
683 748
683 749
684 685
684 784
685 686
686 766
686 767
687 688
687 785
688 689
689 740
689 741
690 691
690 786
691 692
692 758
692 759
693 694
693 745
693 746
694 695
695 788
696 697
696 763
696 764
697 698
698 790
699 700
699 737
699 738
700 701
701 791
702 703
702 755
702 756
703 704
704 792
705 706
705 794
706 707
707 795
708 709
708 797
709 710
710 798
711 771
712 774
713 775
714 777
715 743
715 744
716 879
716 880
717 761
717 762
718 781
719 739
719 740
720 783
721 757
721 758
722 749
722 750
723 767
723 768
724 787
725 789
726 746
726 747
727 882
727 883
728 764
728 765
729 793
730 871
730 872
731 796
732 895
732 896
733 734
733 837
734 735
735 841
736 737
736 852
737 738
738 856
739 740
739 843
740 741
741 817
741 818
742 743
742 838
743 744
744 809
744 810
745 746
745 853
746 747
747 827
747 828
748 749
748 814
748 815
749 750
750 849
751 752
751 806
751 807
752 753
753 842
754 755
754 824
754 825
755 756
756 857
757 758
757 845
758 759
759 820
759 821
760 761
760 839
761 762
762 812
762 813
763 764
763 854
764 765
765 830
765 831
766 767
766 847
767 768
768 851
769 835
770 799
770 800
771 928
771 929
772 836
773 802
773 803
774 931
774 932
775 934
775 935
776 805
776 806
777 937
777 938
778 840
779 808
779 809
780 811
780 812
781 945
781 946
782 844
783 815
783 816
784 846
785 848
786 850
787 958
787 959
788 823
788 824
789 961
789 962
790 855
791 826
791 827
792 829
792 830
793 969
793 970
794 858
795 832
795 833
796 833
796 834
797 859
798 860
799 800
799 909
800 801
801 873
801 874
802 803
802 910
803 804
804 897
804 898
805 806
805 911
806 807
807 886
807 887
808 809
808 867
808 868
809 810
810 913
811 812
811 891
811 892
812 813
813 915
814 815
814 880
814 881
815 816
816 916
817 818
817 917
818 819
819 876
819 877
820 821
820 919
821 822
822 900
822 901
823 824
823 921
824 825
825 889
825 890
826 827
826 870
826 871
827 828
828 923
829 830
829 894
829 895
830 831
831 925
832 833
832 883
832 884
833 834
834 926
835 861
835 862
836 885
836 886
837 862
837 863
838 874
838 875
839 898
839 899
840 1027
840 1028
841 912
842 914
843 868
843 869
844 1006
844 1007
845 892
845 893
846 1024
846 1025
847 904
847 905
848 864
848 865
849 918
850 888
850 889
851 920
852 865
852 866
853 877
853 878
854 901
854 902
855 1030
855 1031
856 922
857 924
858 1094
858 1095
859 1097
859 1098
860 907
860 908
861 862
861 975
862 863
863 933
863 934
864 865
864 986
865 866
866 957
866 958
867 868
867 982
868 869
869 946
869 947
870 871
870 993
871 872
872 970
872 971
873 874
873 927
873 928
874 875
875 979
876 877
876 951
876 952
877 878
878 990
879 880
879 940
879 941
880 881
881 984
882 883
882 964
882 965
883 884
884 995
885 886
885 977
886 887
887 936
887 937
888 889
888 988
889 890
890 960
890 961
891 892
891 983
892 893
893 949
893 950
894 895
894 994
895 896
896 973
896 974
897 898
897 930
897 931
898 899
899 981
900 901
900 954
900 955
901 902
902 992
903 904
903 943
903 944
904 905
905 985
906 907
906 967
906 968
907 908
908 996
909 976
910 978
911 980
912 1128
912 1129
913 939
913 940
914 1073
914 1074
915 942
915 943
916 948
916 949
917 987
918 952
918 953
919 989
920 955
920 956
921 991
922 1131
922 1132
923 963
923 964
924 1091
924 1092
925 966
925 967
926 972
926 973
927 928
927 1034
928 929
929 1035
930 931
930 1037
931 932
932 1038
933 934
933 1039
934 935
935 1000
935 1001
936 937
936 1041
937 938
938 1018
938 1019
939 940
939 1043
940 941
941 1010
941 1011
942 943
942 1044
943 944
944 1028
944 1029
945 946
945 997
945 998
946 947
947 1045
948 949
948 1015
948 1016
949 950
950 1047
951 952
951 1007
951 1008
952 953
953 1049
954 955
954 1025
954 1026
955 956
956 1050
957 958
957 1051
958 959
959 1003
959 1004
960 961
960 1053
961 962
962 1021
962 1022
963 964
963 1055
964 965
965 1013
965 1014
966 967
966 1056
967 968
968 1031
968 1032
969 970
969 1057
970 971
971 1058
972 973
972 1060
973 974
974 1061
975 1033
976 1134
976 1135
977 1036
978 1158
978 1159
979 1040
980 1009
980 1010
981 1042
982 1001
982 1002
983 1019
983 1020
984 1046
985 1048
986 998
986 999
987 1137
987 1138
988 1016
988 1017
989 1161
989 1162
990 1052
991 1012
991 1013
992 1054
993 1004
993 1005
994 1022
994 1023
995 1059
996 1062
997 998
997 1111
998 999
999 1113
1000 1001
1000 1066
1000 1067
1001 1002
1002 1106
1003 1004
1003 1084
1003 1085
1004 1005
1005 1121
1006 1007
1006 1076
1006 1077
1007 1008
1008 1114
1009 1010
1009 1103
1010 1011
1011 1072
1011 1073
1012 1013
1012 1118
1013 1014
1014 1090
1014 1091
1015 1016
1015 1112
1016 1017
1017 1082
1017 1083
1018 1019
1018 1069
1018 1070
1019 1020
1020 1108
1021 1022
1021 1087
1021 1088
1022 1023
1023 1123
1024 1025
1024 1079
1024 1080
1025 1026
1026 1115
1027 1028
1027 1105
1028 1029
1029 1110
1030 1031
1030 1120
1031 1032
1032 1125
1033 1197
1033 1198
1034 1099
1035 1063
1035 1064
1036 1064
1036 1065
1037 1100
1038 1101
1039 1102
1040 1067
1040 1068
1041 1104
1042 1070
1042 1071
1043 1107
1044 1109
1045 1075
1045 1076
1046 1216
1046 1217
1047 1078
1047 1079
1048 1219
1048 1220
1049 1081
1049 1082
1050 1116
1051 1117
1052 1085
1052 1086
1053 1119
1054 1088
1054 1089
1055 1122
1056 1124
1057 1126
1058 1093
1058 1094
1059 1240
1059 1241
1060 1127
1061 1096
1061 1097
1062 1243
1062 1244
1063 1064
1063 1146
1063 1147
1064 1065
1065 1176
1066 1067
1066 1135
1066 1136
1067 1068
1068 1177
1069 1070
1069 1159
1069 1160
1070 1071
1071 1178
1072 1073
1072 1180
1073 1074
1074 1152
1074 1153
1075 1076
1075 1183
1076 1077
1077 1141
1077 1142
1078 1079
1078 1184
1079 1080
1080 1165
1080 1166
1081 1082
1081 1149
1081 1150
1082 1083
1083 1187
1084 1085
1084 1138
1084 1139
1085 1086
1086 1189
1087 1088
1087 1162
1087 1163
1088 1089
1089 1190
1090 1091
1090 1192
1091 1092
1092 1155
1092 1156
1093 1094
1093 1195
1094 1095
1095 1144
1095 1145
1096 1097
1096 1196
1097 1098
1098 1168
1098 1169
1099 1334
1099 1335
1100 1337
1100 1338
1101 1170
1101 1171
1102 1267
1102 1268
1103 1147
1103 1148
1104 1285
1104 1286
1105 1171
1105 1172
1106 1179
1107 1140
1107 1141
1108 1181
1109 1164
1109 1165
1110 1182
1111 1129
1111 1130
1112 1153
1112 1154
1113 1185
1114 1186
1115 1188
1116 1173
1116 1174
1117 1270
1117 1271
1118 1150
1118 1151
1119 1288
1119 1289
1120 1174
1120 1175
1121 1191
1122 1143
1122 1144
1123 1193
1124 1167
1124 1168
1125 1194
1126 1132
1126 1133
1127 1156
1127 1157
1128 1129
1128 1209
1128 1210
1129 1130
1130 1252
1131 1132
1131 1233
1131 1234
1132 1133
1133 1263
1134 1135
1134 1198
1134 1199
1135 1136
1136 1247
1137 1138
1137 1222
1137 1223
1138 1139
1139 1258
1140 1141
1140 1249
1141 1142
1142 1215
1142 1216
1143 1144
1143 1260
1144 1145
1145 1239
1145 1240
1146 1147
1146 1245
1147 1148
1148 1204
1148 1205
1149 1150
1149 1256
1150 1151
1151 1228
1151 1229
1152 1153
1152 1212
1152 1213
1153 1154
1154 1254
1155 1156
1155 1236
1155 1237
1156 1157
1157 1265
1158 1159
1158 1201
1158 1202
1159 1160
1160 1248
1161 1162
1161 1225
1161 1226
1162 1163
1163 1259
1164 1165
1164 1251
1165 1166
1166 1218
1166 1219
1167 1168
1167 1262
1168 1169
1169 1242
1169 1243
1170 1171
1170 1246
1171 1172
1172 1207
1172 1208
1173 1174
1173 1257
1174 1175
1175 1231
1175 1232
1176 1200
1176 1201
1177 1203
1177 1204
1178 1206
1178 1207
1179 1210
1179 1211
1180 1250
1181 1213
1181 1214
1182 1437
1182 1438
1183 1253
1184 1255
1185 1221
1185 1222
1186 1352
1186 1353
1187 1224
1187 1225
1188 1355
1188 1356
1189 1227
1189 1228
1190 1230
1190 1231
1191 1234
1191 1235
1192 1261
1193 1237
1193 1238
1194 1440
1194 1441
1195 1264
1196 1266
1197 1198
1197 1303
1198 1199
1199 1304
1200 1201
1200 1306
1201 1202
1202 1307
1203 1204
1203 1276
1203 1277
1204 1205
1205 1310
1206 1207
1206 1294
1206 1295
1207 1208
1208 1312
1209 1210
1209 1268
1209 1269
1210 1211
1211 1313
1212 1213
1212 1286
1212 1287
1213 1214
1214 1314
1215 1216
1215 1316
1216 1217
1217 1282
1217 1283
1218 1219
1218 1318
1219 1220
1220 1300
1220 1301
1221 1222
1221 1319
1222 1223
1223 1274
1223 1275
1224 1225
1224 1320
1225 1226
1226 1292
1226 1293
1227 1228
1227 1279
1227 1280
1228 1229
1229 1322
1230 1231
1230 1297
1230 1298
1231 1232
1232 1324
1233 1234
1233 1271
1233 1272
1234 1235
1235 1325
1236 1237
1236 1289
1236 1290
1237 1238
1238 1326
1239 1240
1239 1328
1240 1241
1241 1329
1242 1243
1242 1331
1243 1244
1244 1332
1245 1305
1246 1308
1247 1309
1248 1311
1249 1277
1249 1278
1250 1413
1250 1414
1251 1295
1251 1296
1252 1315
1253 1273
1253 1274
1254 1317
1255 1291
1255 1292
1256 1283
1256 1284
1257 1301
1257 1302
1258 1321
1259 1323
1260 1280
1260 1281
1261 1416
1261 1417
1262 1298
1262 1299
1263 1327
1264 1405
1264 1406
1265 1330
1266 1429
1266 1430
1267 1268
1267 1371
1268 1269
1269 1375
1270 1271
1270 1386
1271 1272
1272 1390
1273 1274
1273 1377
1274 1275
1275 1351
1275 1352
1276 1277
1276 1372
1277 1278
1278 1343
1278 1344
1279 1280
1279 1387
1280 1281
1281 1361
1281 1362
1282 1283
1282 1348
1282 1349
1283 1284
1284 1383
1285 1286
1285 1340
1285 1341
1286 1287
1287 1376
1288 1289
1288 1358
1288 1359
1289 1290
1290 1391
1291 1292
1291 1379
1292 1293
1293 1354
1293 1355
1294 1295
1294 1373
1295 1296
1296 1346
1296 1347
1297 1298
1297 1388
1298 1299
1299 1364
1299 1365
1300 1301
1300 1381
1301 1302
1302 1385
1303 1369
1304 1333
1304 1334
1305 1462
1305 1463
1306 1370
1307 1336
1307 1337
1308 1465
1308 1466
1309 1468
1309 1469
1310 1339
1310 1340
1311 1471
1311 1472
1312 1374
1313 1342
1313 1343
1314 1345
1314 1346
1315 1479
1315 1480
1316 1378
1317 1349
1317 1350
1318 1380
1319 1382
1320 1384
1321 1492
1321 1493
1322 1357
1322 1358
1323 1495
1323 1496
1324 1389
1325 1360
1325 1361
1326 1363
1326 1364
1327 1503
1327 1504
1328 1392
1329 1366
1329 1367
1330 1367
1330 1368
1331 1393
1332 1394
1333 1334
1333 1443
1334 1335
1335 1407
1335 1408
1336 1337
1336 1444
1337 1338
1338 1431
1338 1432
1339 1340
1339 1445
1340 1341
1341 1420
1341 1421
1342 1343
1342 1401
1342 1402
1343 1344
1344 1447
1345 1346
1345 1425
1345 1426
1346 1347
1347 1449
1348 1349
1348 1414
1348 1415
1349 1350
1350 1450
1351 1352
1351 1451
1352 1353
1353 1410
1353 1411
1354 1355
1354 1453
1355 1356
1356 1434
1356 1435
1357 1358
1357 1455
1358 1359
1359 1423
1359 1424
1360 1361
1360 1404
1360 1405
1361 1362
1362 1457
1363 1364
1363 1428
1363 1429
1364 1365
1365 1459
1366 1367
1366 1417
1366 1418
1367 1368
1368 1460
1369 1395
1369 1396
1370 1419
1370 1420
1371 1396
1371 1397
1372 1408
1372 1409
1373 1432
1373 1433
1374 1561
1374 1562
1375 1446
1376 1448
1377 1402
1377 1403
1378 1540
1378 1541
1379 1426
1379 1427
1380 1558
1380 1559
1381 1438
1381 1439
1382 1398
1382 1399
1383 1452
1384 1422
1384 1423
1385 1454
1386 1399
1386 1400
1387 1411
1387 1412
1388 1435
1388 1436
1389 1564
1389 1565
1390 1456
1391 1458
1392 1628
1392 1629
1393 1631
1393 1632
1394 1441
1394 1442
1395 1396
1395 1509
1396 1397
1397 1467
1397 1468
1398 1399
1398 1520
1399 1400
1400 1491
1400 1492
1401 1402
1401 1516
1402 1403
1403 1480
1403 1481
1404 1405
1404 1527
1405 1406
1406 1504
1406 1505
1407 1408
1407 1461
1407 1462
1408 1409
1409 1513
1410 1411
1410 1485
1410 1486
1411 1412
1412 1524
1413 1414
1413 1474
1413 1475
1414 1415
1415 1518
1416 1417
1416 1498
1416 1499
1417 1418
1418 1529
1419 1420
1419 1511
1420 1421
1421 1470
1421 1471
1422 1423
1422 1522
1423 1424
1424 1494
1424 1495
1425 1426
1425 1517
1426 1427
1427 1483
1427 1484
1428 1429
1428 1528
1429 1430
1430 1507
1430 1508
1431 1432
1431 1464
1431 1465
1432 1433
1433 1515
1434 1435
1434 1488
1434 1489
1435 1436
1436 1526
1437 1438
1437 1477
1437 1478
1438 1439
1439 1519
1440 1441
1440 1501
1440 1502
1441 1442
1442 1530
1443 1510
1444 1512
1445 1514
1446 1662
1446 1663
1447 1473
1447 1474
1448 1607
1448 1608
1449 1476
1449 1477
1450 1482
1450 1483
1451 1521
1452 1486
1452 1487
1453 1523
1454 1489
1454 1490
1455 1525
1456 1665
1456 1666
1457 1497
1457 1498
1458 1625
1458 1626
1459 1500
1459 1501
1460 1506
1460 1507
1461 1462
1461 1568
1462 1463
1463 1569
1464 1465
1464 1571
1465 1466
1466 1572
1467 1468
1467 1573
1468 1469
1469 1534
1469 1535
1470 1471
1470 1575
1471 1472
1472 1552
1472 1553
1473 1474
1473 1577
1474 1475
1475 1544
1475 1545
1476 1477
1476 1578
1477 1478
1478 1562
1478 1563
1479 1480
1479 1531
1479 1532
1480 1481
1481 1579
1482 1483
1482 1549
1482 1550
1483 1484
1484 1581
1485 1486
1485 1541
1485 1542
1486 1487
1487 1583
1488 1489
1488 1559
1488 1560
1489 1490
1490 1584
1491 1492
1491 1585
1492 1493
1493 1537
1493 1538
1494 1495
1494 1587
1495 1496
1496 1555
1496 1556
1497 1498
1497 1589
1498 1499
1499 1547
1499 1548
1500 1501
1500 1590
1501 1502
1502 1565
1502 1566
1503 1504
1503 1591
1504 1505
1505 1592
1506 1507
1506 1594
1507 1508
1508 1595
1509 1567
1510 1668
1510 1669
1511 1570
1512 1692
1512 1693
1513 1574
1514 1543
1514 1544
1515 1576
1516 1535
1516 1536
1517 1553
1517 1554
1518 1580
1519 1582
1520 1532
1520 1533
1521 1671
1521 1672
1522 1550
1522 1551
1523 1695
1523 1696
1524 1586
1525 1546
1525 1547
1526 1588
1527 1538
1527 1539
1528 1556
1528 1557
1529 1593
1530 1596
1531 1532
1531 1645
1532 1533
1533 1647
1534 1535
1534 1600
1534 1601
1535 1536
1536 1640
1537 1538
1537 1618
1537 1619
1538 1539
1539 1655
1540 1541
1540 1610
1540 1611
1541 1542
1542 1648
1543 1544
1543 1637
1544 1545
1545 1606
1545 1607
1546 1547
1546 1652
1547 1548
1548 1624
1548 1625
1549 1550
1549 1646
1550 1551
1551 1616
1551 1617
1552 1553
1552 1603
1552 1604
1553 1554
1554 1642
1555 1556
1555 1621
1555 1622
1556 1557
1557 1657
1558 1559
1558 1613
1558 1614
1559 1560
1560 1649
1561 1562
1561 1639
1562 1563
1563 1644
1564 1565
1564 1654
1565 1566
1566 1659
1567 1731
1567 1732
1568 1633
1569 1597
1569 1598
1570 1598
1570 1599
1571 1634
1572 1635
1573 1636
1574 1601
1574 1602
1575 1638
1576 1604
1576 1605
1577 1641
1578 1643
1579 1609
1579 1610
1580 1750
1580 1751
1581 1612
1581 1613
1582 1753
1582 1754
1583 1615
1583 1616
1584 1650
1585 1651
1586 1619
1586 1620
1587 1653
1588 1622
1588 1623
1589 1656
1590 1658
1591 1660
1592 1627
1592 1628
1593 1774
1593 1775
1594 1661
1595 1630
1595 1631
1596 1777
1596 1778
1597 1598
1597 1680
1597 1681
1598 1599
1599 1710
1600 1601
1600 1669
1600 1670
1601 1602
1602 1711
1603 1604
1603 1693
1603 1694
1604 1605
1605 1712
1606 1607
1606 1714
1607 1608
1608 1686
1608 1687
1609 1610
1609 1717
1610 1611
1611 1675
1611 1676
1612 1613
1612 1718
1613 1614
1614 1699
1614 1700
1615 1616
1615 1683
1615 1684
1616 1617
1617 1721
1618 1619
1618 1672
1618 1673
1619 1620
1620 1723
1621 1622
1621 1696
1621 1697
1622 1623
1623 1724
1624 1625
1624 1726
1625 1626
1626 1689
1626 1690
1627 1628
1627 1729
1628 1629
1629 1678
1629 1679
1630 1631
1630 1730
1631 1632
1632 1702
1632 1703
1633 1868
1633 1869
1634 1871
1634 1872
1635 1704
1635 1705
1636 1801
1636 1802
1637 1681
1637 1682
1638 1819
1638 1820
1639 1705
1639 1706
1640 1713
1641 1674
1641 1675
1642 1715
1643 1698
1643 1699
1644 1716
1645 1663
1645 1664
1646 1687
1646 1688
1647 1719
1648 1720
1649 1722
1650 1707
1650 1708
1651 1804
1651 1805
1652 1684
1652 1685
1653 1822
1653 1823
1654 1708
1654 1709
1655 1725
1656 1677
1656 1678
1657 1727
1658 1701
1658 1702
1659 1728
1660 1666
1660 1667
1661 1690
1661 1691
1662 1663
1662 1743
1662 1744
1663 1664
1664 1786
1665 1666
1665 1767
1665 1768
1666 1667
1667 1797
1668 1669
1668 1732
1668 1733
1669 1670
1670 1781
1671 1672
1671 1756
1671 1757
1672 1673
1673 1792
1674 1675
1674 1783
1675 1676
1676 1749
1676 1750
1677 1678
1677 1794
1678 1679
1679 1773
1679 1774
1680 1681
1680 1779
1681 1682
1682 1738
1682 1739
1683 1684
1683 1790
1684 1685
1685 1762
1685 1763
1686 1687
1686 1746
1686 1747
1687 1688
1688 1788
1689 1690
1689 1770
1689 1771
1690 1691
1691 1799
1692 1693
1692 1735
1692 1736
1693 1694
1694 1782
1695 1696
1695 1759
1695 1760
1696 1697
1697 1793
1698 1699
1698 1785
1699 1700
1700 1752
1700 1753
1701 1702
1701 1796
1702 1703
1703 1776
1703 1777
1704 1705
1704 1780
1705 1706
1706 1741
1706 1742
1707 1708
1707 1791
1708 1709
1709 1765
1709 1766
1710 1734
1710 1735
1711 1737
1711 1738
1712 1740
1712 1741
1713 1744
1713 1745
1714 1784
1715 1747
1715 1748
1716 1971
1716 1972
1717 1787
1718 1789
1719 1755
1719 1756
1720 1886
1720 1887
1721 1758
1721 1759
1722 1889
1722 1890
1723 1761
1723 1762
1724 1764
1724 1765
1725 1768
1725 1769
1726 1795
1727 1771
1727 1772
1728 1974
1728 1975
1729 1798
1730 1800
1731 1732
1731 1837
1732 1733
1733 1838
1734 1735
1734 1840
1735 1736
1736 1841
1737 1738
1737 1810
1737 1811
1738 1739
1739 1844
1740 1741
1740 1828
1740 1829
1741 1742
1742 1846
1743 1744
1743 1802
1743 1803
1744 1745
1745 1847
1746 1747
1746 1820
1746 1821
1747 1748
1748 1848
1749 1750
1749 1850
1750 1751
1751 1816
1751 1817
1752 1753
1752 1852
1753 1754
1754 1834
1754 1835
1755 1756
1755 1853
1756 1757
1757 1808
1757 1809
1758 1759
1758 1854
1759 1760
1760 1826
1760 1827
1761 1762
1761 1813
1761 1814
1762 1763
1763 1856
1764 1765
1764 1831
1764 1832
1765 1766
1766 1858
1767 1768
1767 1805
1767 1806
1768 1769
1769 1859
1770 1771
1770 1823
1770 1824
1771 1772
1772 1860
1773 1774
1773 1862
1774 1775
1775 1863
1776 1777
1776 1865
1777 1778
1778 1866
1779 1839
1780 1842
1781 1843
1782 1845
1783 1811
1783 1812
1784 1947
1784 1948
1785 1829
1785 1830
1786 1849
1787 1807
1787 1808
1788 1851
1789 1825
1789 1826
1790 1817
1790 1818
1791 1835
1791 1836
1792 1855
1793 1857
1794 1814
1794 1815
1795 1950
1795 1951
1796 1832
1796 1833
1797 1861
1798 1939
1798 1940
1799 1864
1800 1963
1800 1964
1801 1802
1801 1905
1802 1803
1803 1909
1804 1805
1804 1920
1805 1806
1806 1924
1807 1808
1807 1911
1808 1809
1809 1885
1809 1886
1810 1811
1810 1906
1811 1812
1812 1877
1812 1878
1813 1814
1813 1921
1814 1815
1815 1895
1815 1896
1816 1817
1816 1882
1816 1883
1817 1818
1818 1917
1819 1820
1819 1874
1819 1875
1820 1821
1821 1910
1822 1823
1822 1892
1822 1893
1823 1824
1824 1925
1825 1826
1825 1913
1826 1827
1827 1888
1827 1889
1828 1829
1828 1907
1829 1830
1830 1880
1830 1881
1831 1832
1831 1922
1832 1833
1833 1898
1833 1899
1834 1835
1834 1915
1835 1836
1836 1919
1837 1903
1838 1867
1838 1868
1839 1996
1839 1997
1840 1904
1841 1870
1841 1871
1842 1999
1842 2000
1843 2002
1843 2003
1844 1873
1844 1874
1845 2005
1845 2006
1846 1908
1847 1876
1847 1877
1848 1879
1848 1880
1849 2013
1849 2014
1850 1912
1851 1883
1851 1884
1852 1914
1853 1916
1854 1918
1855 2026
1855 2027
1856 1891
1856 1892
1857 2029
1857 2030
1858 1923
1859 1894
1859 1895
1860 1897
1860 1898
1861 2037
1861 2038
1862 1926
1863 1900
1863 1901
1864 1901
1864 1902
1865 1927
1866 1928
1867 1868
1867 1977
1868 1869
1869 1941
1869 1942
1870 1871
1870 1978
1871 1872
1872 1965
1872 1966
1873 1874
1873 1979
1874 1875
1875 1954
1875 1955
1876 1877
1876 1935
1876 1936
1877 1878
1878 1981
1879 1880
1879 1959
1879 1960
1880 1881
1881 1983
1882 1883
1882 1948
1882 1949
1883 1884
1884 1984
1885 1886
1885 1985
1886 1887
1887 1944
1887 1945
1888 1889
1888 1987
1889 1890
1890 1968
1890 1969
1891 1892
1891 1989
1892 1893
1893 1957
1893 1958
1894 1895
1894 1938
1894 1939
1895 1896
1896 1991
1897 1898
1897 1962
1897 1963
1898 1899
1899 1993
1900 1901
1900 1951
1900 1952
1901 1902
1902 1994
1903 1929
1903 1930
1904 1953
1904 1954
1905 1930
1905 1931
1906 1942
1906 1943
1907 1966
1907 1967
1908 2095
1908 2096
1909 1980
1910 1982
1911 1936
1911 1937
1912 2074
1912 2075
1913 1960
1913 1961
1914 2092
1914 2093
1915 1972
1915 1973
1916 1932
1916 1933
1917 1986
1918 1956
1918 1957
1919 1988
1920 1933
1920 1934
1921 1945
1921 1946
1922 1969
1922 1970
1923 2098
1923 2099
1924 1990
1925 1992
1926 2162
1926 2163
1927 2165
1927 2166
1928 1975
1928 1976
1929 1930
1929 2043
1930 1931
1931 2001
1931 2002
1932 1933
1932 2054
1933 1934
1934 2025
1934 2026
1935 1936
1935 2050
1936 1937
1937 2014
1937 2015
1938 1939
1938 2061
1939 1940
1940 2038
1940 2039
1941 1942
1941 1995
1941 1996
1942 1943
1943 2047
1944 1945
1944 2019
1944 2020
1945 1946
1946 2058
1947 1948
1947 2008
1947 2009
1948 1949
1949 2052
1950 1951
1950 2032
1950 2033
1951 1952
1952 2063
1953 1954
1953 2045
1954 1955
1955 2004
1955 2005
1956 1957
1956 2056
1957 1958
1958 2028
1958 2029
1959 1960
1959 2051
1960 1961
1961 2017
1961 2018
1962 1963
1962 2062
1963 1964
1964 2041
1964 2042
1965 1966
1965 1998
1965 1999
1966 1967
1967 2049
1968 1969
1968 2022
1968 2023
1969 1970
1970 2060
1971 1972
1971 2011
1971 2012
1972 1973
1973 2053
1974 1975
1974 2035
1974 2036
1975 1976
1976 2064
1977 2044
1978 2046
1979 2048
1980 2196
1980 2197
1981 2007
1981 2008
1982 2141
1982 2142
1983 2010
1983 2011
1984 2016
1984 2017
1985 2055
1986 2020
1986 2021
1987 2057
1988 2023
1988 2024
1989 2059
1990 2199
1990 2200
1991 2031
1991 2032
1992 2159
1992 2160
1993 2034
1993 2035
1994 2040
1994 2041
1995 1996
1995 2102
1996 1997
1997 2103
1998 1999
1998 2105
1999 2000
2000 2106
2001 2002
2001 2107
2002 2003
2003 2068
2003 2069
2004 2005
2004 2109
2005 2006
2006 2086
2006 2087
2007 2008
2007 2111
2008 2009
2009 2078
2009 2079
2010 2011
2010 2112
2011 2012
2012 2096
2012 2097
2013 2014
2013 2065
2013 2066
2014 2015
2015 2113
2016 2017
2016 2083
2016 2084
2017 2018
2018 2115
2019 2020
2019 2075
2019 2076
2020 2021
2021 2117
2022 2023
2022 2093
2022 2094
2023 2024
2024 2118
2025 2026
2025 2119
2026 2027
2027 2071
2027 2072
2028 2029
2028 2121
2029 2030
2030 2089
2030 2090
2031 2032
2031 2123
2032 2033
2033 2081
2033 2082
2034 2035
2034 2124
2035 2036
2036 2099
2036 2100
2037 2038
2037 2125
2038 2039
2039 2126
2040 2041
2040 2128
2041 2042
2042 2129
2043 2101
2044 2202
2044 2203
2045 2104
2046 2226
2046 2227
2047 2108
2048 2077
2048 2078
2049 2110
2050 2069
2050 2070
2051 2087
2051 2088
2052 2114
2053 2116
2054 2066
2054 2067
2055 2205
2055 2206
2056 2084
2056 2085
2057 2229
2057 2230
2058 2120
2059 2080
2059 2081
2060 2122
2061 2072
2061 2073
2062 2090
2062 2091
2063 2127
2064 2130
2065 2066
2065 2179
2066 2067
2067 2181
2068 2069
2068 2134
2068 2135
2069 2070
2070 2174
2071 2072
2071 2152
2071 2153
2072 2073
2073 2189
2074 2075
2074 2144
2074 2145
2075 2076
2076 2182
2077 2078
2077 2171
2078 2079
2079 2140
2079 2141
2080 2081
2080 2186
2081 2082
2082 2158
2082 2159
2083 2084
2083 2180
2084 2085
2085 2150
2085 2151
2086 2087
2086 2137
2086 2138
2087 2088
2088 2176
2089 2090
2089 2155
2089 2156
2090 2091
2091 2191
2092 2093
2092 2147
2092 2148
2093 2094
2094 2183
2095 2096
2095 2173
2096 2097
2097 2178
2098 2099
2098 2188
2099 2100
2100 2193
2101 2265
2102 2167
2103 2131
2103 2132
2104 2132
2104 2133
2105 2168
2106 2169
2107 2170
2108 2135
2108 2136
2109 2172
2110 2138
2110 2139
2111 2175
2112 2177
2113 2143
2113 2144
2114 2292
2115 2146
2115 2147
2116 2296
2117 2149
2117 2150
2118 2184
2119 2185
2120 2153
2120 2154
2121 2187
2122 2156
2122 2157
2123 2190
2124 2192
2125 2194
2126 2161
2126 2162
2127 2324
2128 2195
2129 2164
2129 2165
2130 2328
2131 2132
2131 2214
2131 2215
2132 2133
2133 2244
2134 2135
2134 2203
2134 2204
2135 2136
2136 2245
2137 2138
2137 2227
2137 2228
2138 2139
2139 2246
2140 2141
2140 2248
2141 2142
2142 2220
2142 2221
2143 2144
2143 2251
2144 2145
2145 2209
2145 2210
2146 2147
2146 2252
2147 2148
2148 2233
2148 2234
2149 2150
2149 2217
2149 2218
2150 2151
2151 2255
2152 2153
2152 2206
2152 2207
2153 2154
2154 2257
2155 2156
2155 2230
2155 2231
2156 2157
2157 2258
2158 2159
2158 2260
2159 2160
2160 2223
2160 2224
2161 2162
2161 2263
2162 2163
2163 2212
2163 2213
2164 2165
2164 2264
2165 2166
2166 2236
2166 2237
2167 2267
2168 2271
2169 2238
2169 2239
2170 2273
2171 2215
2171 2216
2172 2277
2173 2239
2173 2240
2174 2247
2175 2208
2175 2209
2176 2249
2177 2232
2177 2233
2178 2250
2179 2197
2179 2198
2180 2221
2180 2222
2181 2253
2182 2254
2183 2256
2184 2241
2184 2242
2185 2305
2186 2218
2186 2219
2187 2309
2188 2242
2188 2243
2189 2259
2190 2211
2190 2212
2191 2261
2192 2235
2192 2236
2193 2262
2194 2200
2194 2201
2195 2224
2195 2225
2196 2197
2196 2281
2197 2198
2198 2289
2199 2200
2199 2313
2200 2201
2201 2321
2202 2203
2202 2266
2203 2204
2204 2274
2205 2206
2205 2298
2206 2207
2207 2306
2208 2209
2208 2283
2209 2210
2210 2291
2211 2212
2211 2315
2212 2213
2213 2323
2214 2215
2214 2268
2215 2216
2216 2276
2217 2218
2217 2300
2218 2219
2219 2308
2220 2221
2220 2285
2221 2222
2222 2293
2223 2224
2223 2317
2224 2225
2225 2325
2226 2227
2226 2270
2227 2228
2228 2278
2229 2230
2229 2302
2230 2231
2231 2310
2232 2233
2232 2287
2233 2234
2234 2295
2235 2236
2235 2319
2236 2237
2237 2327
2238 2239
2238 2272
2239 2240
2240 2280
2241 2242
2241 2304
2242 2243
2243 2312
2244 2269
2245 2275
2246 2279
2247 2282
2248 2284
2249 2286
2250 2288
2251 2290
2252 2294
2253 2297
2254 2299
2255 2301
2256 2303
2257 2307
2258 2311
2259 2314
2260 2316
2261 2318
2262 2320
2263 2322
2264 2326
